************************************************************************
file with basedata            : mm32_.bas
initial value random generator: 133209496
************************************************************************
projects                      :  1
jobs (incl. supersource/sink ):  12
horizon                       :  86
RESOURCES
  - renewable                 :  2   R
  - nonrenewable              :  2   N
  - doubly constrained        :  0   D
************************************************************************
PROJECT INFORMATION:
pronr.  #jobs rel.date duedate tardcost  MPM-Time
    1     10      0       16        1       16
************************************************************************
PRECEDENCE RELATIONS:
jobnr.    #modes  #successors   successors
   0        1          3           1   2   3
   1        3          2           4   6
   2        3          3           5   6   8
   3        3          1           5
   4        3          3           7   8  10
   5        3          1           9
   6        3          1          10
   7        3          1           9
   8        3          1          11
   9        3          1          11
  10        3          1          11
  11        1          0        
************************************************************************
REQUESTS/DURATIONS:
jobnr. mode duration  R 1  R 2  R 3  R 4  E(W 1)  E(W 2)
------------------------------------------------------------------------
  0      1     0       0    0    0    0     0       0
  1      1     6       8    0    9    9    48      108
  2      1     2       0    5   10    9    10      38
  3      1     2       8    0    3    9    16      24
  4      1     3       9    0    7    8    27      45
  5      1     1       8    0    5    6     8      11
  6      1     4       0    4    9    6    16      60
  7      1     1       0    4   10    4     4      14
  8      1     7      10    0    9    6    70      105
  9      1     2       8    0    6    2    16      16
 10      1     1       0    3   10    9     3      19
 11      1     0       0    0    0    0     0       0
************************************************************************
RESOURCEAVAILABILITIES:
  R 1  R 2
   45   146
************************************************************************
RESOURCE LIMITS:
jobnr.  l(R 1)  u(R 1)  l(R 2)  u(R 2)
------------------------------------------------------------------------
  0        0       0       0       0
  1        4       8      10      18
  2        3       5      10      19
  3        4       8       7      12
  4        5       9       8      15
  5        4       8       6      11
  6        2       4       8      15
  7        2       4       7      14
  8        5      10       8      15
  9        4       8       4       8
 10        2       3      10      19
 11        0       0       0       0
************************************************************************
SCENARIOS:
------------------------------------------------------------------------
RESOURCE k = 1
s = 1: (0, 53, 9, 10, 18, 7, 15, 4, 104, 13, 3, 0)
s = 2: (0, 72, 10, 18, 24, 7, 21, 4, 85, 14, 3, 0)
s = 3: (0, 60, 6, 12, 17, 7, 14, 3, 68, 18, 3, 0)
s = 4: (0, 51, 11, 18, 24, 8, 11, 7, 57, 21, 2, 0)
s = 5: (0, 57, 12, 13, 24, 6, 16, 3, 66, 28, 4, 0)
s = 6: (0, 36, 16, 14, 36, 8, 19, 4, 81, 17, 4, 0)
s = 7: (0, 55, 9, 12, 17, 8, 19, 5, 77, 17, 3, 0)
s = 8: (0, 35, 8, 13, 17, 6, 12, 3, 121, 15, 4, 0)
s = 9: (0, 40, 9, 19, 32, 10, 14, 4, 61, 16, 3, 0)
s = 10: (0, 46, 15, 19, 50, 10, 19, 4, 89, 11, 5, 0)
s = 11: (0, 33, 7, 24, 34, 6, 13, 8, 56, 11, 5, 0)
s = 12: (0, 30, 12, 11, 19, 7, 13, 4, 64, 15, 3, 0)
s = 13: (0, 47, 14, 24, 35, 7, 25, 5, 68, 18, 2, 0)
s = 14: (0, 61, 15, 19, 16, 11, 13, 4, 57, 19, 3, 0)
s = 15: (0, 40, 10, 14, 19, 8, 10, 6, 61, 13, 3, 0)
s = 16: (0, 86, 7, 11, 26, 12, 17, 4, 75, 18, 4, 0)
s = 17: (0, 27, 8, 11, 29, 14, 21, 5, 57, 15, 4, 0)
s = 18: (0, 34, 10, 19, 24, 6, 23, 4, 54, 21, 4, 0)
s = 19: (0, 44, 13, 17, 26, 11, 23, 5, 66, 17, 3, 0)
s = 20: (0, 37, 7, 18, 26, 10, 25, 6, 56, 23, 3, 0)
s = 21: (0, 49, 11, 17, 29, 11, 21, 6, 82, 17, 4, 0)
s = 22: (0, 34, 9, 9, 30, 7, 17, 3, 62, 14, 4, 0)
s = 23: (0, 38, 11, 21, 35, 10, 17, 6, 78, 13, 5, 0)
s = 24: (0, 51, 10, 16, 22, 6, 13, 5, 67, 15, 4, 0)
s = 25: (0, 47, 9, 17, 26, 9, 14, 4, 77, 13, 3, 0)
s = 26: (0, 27, 8, 21, 33, 11, 23, 4, 74, 24, 4, 0)
s = 27: (0, 50, 11, 12, 21, 6, 15, 5, 82, 18, 4, 0)
s = 28: (0, 59, 9, 25, 26, 10, 19, 4, 90, 21, 3, 0)
s = 29: (0, 63, 10, 16, 35, 7, 34, 4, 78, 21, 4, 0)
s = 30: (0, 39, 10, 16, 22, 5, 16, 4, 110, 11, 3, 0)
s = 31: (0, 44, 12, 14, 15, 11, 14, 4, 49, 11, 3, 0)
s = 32: (0, 44, 8, 14, 27, 9, 19, 4, 62, 22, 2, 0)
s = 33: (0, 45, 17, 12, 23, 9, 13, 3, 114, 16, 3, 0)
s = 34: (0, 40, 17, 18, 39, 13, 15, 6, 90, 18, 4, 0)
s = 35: (0, 53, 11, 13, 28, 8, 19, 5, 71, 16, 5, 0)
s = 36: (0, 48, 10, 10, 34, 6, 15, 4, 76, 13, 2, 0)
s = 37: (0, 32, 9, 13, 23, 6, 9, 6, 77, 12, 3, 0)
s = 38: (0, 40, 9, 20, 23, 10, 16, 4, 81, 19, 4, 0)
s = 39: (0, 46, 10, 19, 33, 9, 31, 3, 46, 11, 4, 0)
s = 40: (0, 52, 18, 17, 18, 10, 11, 6, 71, 22, 2, 0)
s = 41: (0, 33, 11, 29, 36, 13, 20, 3, 100, 14, 3, 0)
s = 42: (0, 79, 12, 24, 18, 8, 18, 5, 74, 9, 4, 0)
s = 43: (0, 65, 10, 23, 39, 9, 22, 4, 53, 22, 3, 0)
s = 44: (0, 34, 14, 10, 36, 11, 15, 4, 62, 15, 5, 0)
s = 45: (0, 53, 7, 22, 28, 11, 10, 4, 56, 13, 3, 0)
s = 46: (0, 33, 15, 17, 28, 10, 14, 6, 64, 16, 4, 0)
s = 47: (0, 43, 8, 13, 21, 6, 16, 6, 74, 21, 5, 0)
s = 48: (0, 34, 8, 14, 20, 7, 13, 3, 56, 11, 3, 0)
s = 49: (0, 45, 8, 16, 19, 7, 10, 5, 64, 12, 3, 0)
s = 50: (0, 61, 10, 24, 24, 7, 23, 3, 87, 13, 5, 0)
s = 51: (0, 47, 10, 16, 44, 8, 13, 4, 42, 11, 3, 0)
s = 52: (0, 69, 11, 17, 33, 7, 13, 6, 59, 12, 4, 0)
s = 53: (0, 36, 12, 20, 35, 7, 20, 5, 98, 11, 4, 0)
s = 54: (0, 36, 11, 19, 31, 10, 20, 6, 45, 20, 3, 0)
s = 55: (0, 43, 9, 16, 35, 7, 15, 5, 66, 27, 5, 0)
s = 56: (0, 34, 12, 19, 36, 8, 12, 5, 83, 12, 3, 0)
s = 57: (0, 46, 15, 10, 32, 10, 17, 4, 80, 19, 4, 0)
s = 58: (0, 32, 7, 14, 17, 13, 14, 5, 61, 24, 3, 0)
s = 59: (0, 49, 10, 13, 26, 9, 16, 5, 51, 12, 4, 0)
s = 60: (0, 46, 6, 13, 23, 13, 21, 4, 44, 16, 3, 0)
s = 61: (0, 46, 13, 21, 30, 11, 14, 4, 88, 22, 4, 0)
s = 62: (0, 39, 9, 17, 22, 9, 21, 6, 39, 24, 2, 0)
s = 63: (0, 56, 12, 14, 19, 5, 16, 6, 46, 14, 4, 0)
s = 64: (0, 62, 10, 18, 20, 7, 10, 4, 96, 12, 4, 0)
s = 65: (0, 74, 10, 19, 27, 13, 16, 5, 76, 21, 3, 0)
s = 66: (0, 67, 14, 17, 17, 6, 21, 3, 46, 13, 4, 0)
s = 67: (0, 38, 7, 10, 25, 9, 12, 4, 98, 18, 4, 0)
s = 68: (0, 38, 13, 16, 25, 11, 17, 3, 57, 26, 3, 0)
s = 69: (0, 45, 9, 15, 27, 7, 17, 6, 69, 16, 4, 0)
s = 70: (0, 48, 6, 14, 30, 13, 16, 5, 106, 17, 3, 0)
s = 71: (0, 62, 14, 19, 17, 6, 22, 4, 65, 17, 3, 0)
s = 72: (0, 40, 13, 15, 36, 14, 14, 4, 73, 15, 4, 0)
s = 73: (0, 42, 9, 15, 20, 7, 14, 6, 48, 19, 3, 0)
s = 74: (0, 49, 15, 13, 33, 8, 12, 4, 69, 20, 4, 0)
s = 75: (0, 33, 14, 15, 29, 10, 11, 5, 61, 17, 3, 0)
s = 76: (0, 28, 10, 9, 20, 10, 28, 4, 99, 10, 5, 0)
s = 77: (0, 55, 6, 9, 25, 10, 21, 4, 44, 9, 3, 0)
s = 78: (0, 46, 8, 11, 35, 6, 14, 5, 49, 19, 3, 0)
s = 79: (0, 60, 12, 13, 19, 8, 15, 4, 74, 15, 3, 0)
s = 80: (0, 45, 12, 15, 22, 9, 17, 3, 56, 19, 4, 0)
s = 81: (0, 56, 7, 12, 20, 7, 23, 4, 73, 22, 3, 0)
s = 82: (0, 38, 8, 21, 18, 8, 20, 3, 72, 18, 4, 0)
s = 83: (0, 48, 13, 24, 37, 9, 18, 5, 64, 14, 3, 0)
s = 84: (0, 56, 8, 14, 29, 12, 17, 4, 107, 20, 5, 0)
s = 85: (0, 43, 15, 15, 24, 7, 14, 7, 129, 21, 4, 0)
s = 86: (0, 67, 15, 15, 22, 12, 28, 5, 55, 14, 4, 0)
s = 87: (0, 58, 10, 21, 20, 6, 14, 3, 83, 15, 2, 0)
s = 88: (0, 57, 8, 17, 20, 10, 12, 3, 57, 11, 4, 0)
s = 89: (0, 37, 17, 14, 22, 7, 21, 7, 65, 14, 3, 0)
s = 90: (0, 31, 11, 30, 34, 5, 16, 5, 102, 10, 4, 0)
s = 91: (0, 57, 12, 11, 22, 7, 26, 4, 51, 21, 3, 0)
s = 92: (0, 71, 8, 20, 26, 6, 11, 5, 60, 12, 3, 0)
s = 93: (0, 57, 6, 14, 26, 8, 15, 4, 47, 16, 4, 0)
s = 94: (0, 45, 9, 20, 29, 11, 15, 3, 55, 14, 4, 0)
s = 95: (0, 44, 8, 18, 33, 12, 17, 6, 88, 16, 4, 0)
s = 96: (0, 45, 11, 13, 19, 9, 19, 5, 74, 16, 3, 0)
s = 97: (0, 29, 9, 19, 22, 8, 17, 4, 49, 15, 3, 0)
s = 98: (0, 67, 10, 18, 18, 10, 16, 4, 59, 16, 4, 0)
s = 99: (0, 43, 7, 19, 23, 9, 18, 4, 50, 15, 4, 0)
s = 100: (0, 36, 19, 10, 29, 6, 14, 3, 129, 11, 4, 0)
s = 101: (0, 63, 7, 16, 22, 7, 10, 5, 74, 15, 3, 0)
s = 102: (0, 51, 19, 17, 29, 6, 15, 6, 44, 18, 2, 0)
s = 103: (0, 68, 10, 32, 31, 6, 14, 4, 80, 16, 3, 0)
s = 104: (0, 43, 15, 12, 20, 8, 13, 4, 67, 11, 3, 0)
s = 105: (0, 41, 11, 14, 39, 7, 17, 4, 39, 19, 3, 0)
s = 106: (0, 64, 10, 16, 17, 13, 13, 4, 39, 15, 4, 0)
s = 107: (0, 48, 9, 20, 27, 11, 17, 3, 72, 25, 4, 0)
s = 108: (0, 28, 10, 14, 19, 9, 21, 3, 66, 21, 4, 0)
s = 109: (0, 30, 11, 18, 18, 9, 9, 4, 67, 19, 4, 0)
s = 110: (0, 34, 8, 11, 22, 8, 20, 5, 63, 10, 2, 0)
s = 111: (0, 68, 13, 17, 26, 8, 17, 3, 53, 19, 3, 0)
s = 112: (0, 51, 19, 18, 31, 7, 15, 4, 83, 9, 3, 0)
s = 113: (0, 53, 13, 14, 22, 7, 22, 6, 83, 12, 3, 0)
s = 114: (0, 35, 8, 16, 17, 8, 23, 5, 80, 18, 3, 0)
s = 115: (0, 32, 13, 21, 36, 14, 21, 4, 87, 22, 3, 0)
s = 116: (0, 46, 14, 14, 27, 6, 24, 7, 49, 17, 3, 0)
s = 117: (0, 28, 11, 25, 34, 5, 14, 3, 94, 19, 4, 0)
s = 118: (0, 39, 15, 12, 31, 9, 18, 5, 53, 19, 5, 0)
s = 119: (0, 43, 8, 19, 36, 9, 14, 4, 63, 17, 5, 0)
s = 120: (0, 27, 14, 17, 26, 6, 20, 8, 79, 28, 6, 0)
s = 121: (0, 63, 7, 22, 25, 7, 17, 5, 82, 21, 4, 0)
s = 122: (0, 63, 13, 13, 36, 10, 11, 5, 58, 11, 4, 0)
s = 123: (0, 42, 14, 17, 25, 6, 18, 6, 109, 10, 3, 0)
s = 124: (0, 31, 11, 18, 44, 8, 21, 6, 114, 15, 3, 0)
s = 125: (0, 56, 11, 12, 36, 10, 20, 4, 44, 14, 2, 0)
s = 126: (0, 58, 9, 21, 27, 8, 17, 4, 72, 17, 5, 0)
s = 127: (0, 57, 8, 24, 31, 7, 20, 3, 69, 16, 3, 0)
s = 128: (0, 60, 11, 17, 22, 9, 24, 5, 40, 14, 5, 0)
s = 129: (0, 51, 6, 22, 31, 11, 15, 5, 61, 15, 4, 0)
s = 130: (0, 55, 8, 20, 27, 7, 12, 3, 74, 14, 5, 0)
s = 131: (0, 50, 11, 12, 25, 5, 22, 4, 97, 17, 4, 0)
s = 132: (0, 28, 11, 10, 35, 9, 20, 4, 51, 13, 4, 0)
s = 133: (0, 70, 11, 26, 42, 8, 16, 3, 87, 20, 2, 0)
s = 134: (0, 55, 9, 11, 28, 11, 12, 4, 70, 17, 3, 0)
s = 135: (0, 54, 11, 12, 36, 9, 15, 4, 77, 11, 5, 0)
s = 136: (0, 62, 9, 20, 33, 7, 21, 6, 59, 23, 3, 0)
s = 137: (0, 40, 7, 16, 30, 15, 10, 5, 39, 15, 5, 0)
s = 138: (0, 48, 12, 17, 33, 8, 18, 5, 70, 16, 3, 0)
s = 139: (0, 60, 8, 10, 17, 5, 11, 7, 75, 10, 4, 0)
s = 140: (0, 61, 6, 14, 24, 9, 10, 5, 82, 13, 2, 0)
s = 141: (0, 48, 7, 14, 37, 8, 15, 3, 75, 19, 3, 0)
s = 142: (0, 68, 7, 17, 27, 10, 13, 5, 52, 14, 3, 0)
s = 143: (0, 43, 9, 23, 39, 7, 18, 4, 46, 19, 2, 0)
s = 144: (0, 37, 10, 9, 22, 5, 10, 6, 78, 20, 6, 0)
s = 145: (0, 88, 11, 28, 15, 9, 20, 6, 64, 14, 3, 0)
s = 146: (0, 26, 8, 11, 40, 13, 15, 6, 88, 25, 2, 0)
s = 147: (0, 61, 12, 18, 35, 8, 21, 5, 43, 22, 3, 0)
s = 148: (0, 37, 9, 21, 37, 8, 15, 5, 75, 15, 4, 0)
s = 149: (0, 47, 10, 12, 22, 10, 14, 6, 52, 24, 3, 0)
s = 150: (0, 48, 8, 16, 47, 6, 15, 3, 54, 16, 3, 0)
s = 151: (0, 32, 8, 15, 22, 9, 22, 3, 56, 11, 3, 0)
s = 152: (0, 71, 7, 22, 25, 8, 13, 4, 73, 14, 3, 0)
s = 153: (0, 38, 8, 20, 23, 9, 13, 5, 84, 11, 4, 0)
s = 154: (0, 63, 7, 22, 19, 11, 12, 3, 73, 18, 3, 0)
s = 155: (0, 55, 12, 19, 27, 6, 16, 5, 53, 22, 4, 0)
s = 156: (0, 32, 18, 17, 31, 7, 23, 4, 48, 15, 3, 0)
s = 157: (0, 51, 13, 16, 29, 9, 10, 6, 78, 13, 4, 0)
s = 158: (0, 33, 6, 16, 36, 6, 9, 3, 78, 14, 4, 0)
s = 159: (0, 44, 12, 13, 18, 7, 18, 3, 67, 12, 3, 0)
s = 160: (0, 29, 9, 20, 21, 6, 14, 6, 117, 11, 3, 0)
s = 161: (0, 40, 13, 23, 35, 8, 15, 4, 94, 14, 3, 0)
s = 162: (0, 63, 12, 25, 30, 10, 18, 6, 52, 17, 3, 0)
s = 163: (0, 52, 8, 15, 29, 10, 18, 4, 78, 22, 3, 0)
s = 164: (0, 53, 12, 17, 36, 7, 20, 4, 72, 16, 2, 0)
s = 165: (0, 48, 7, 19, 22, 8, 20, 3, 46, 12, 3, 0)
s = 166: (0, 52, 8, 13, 19, 7, 25, 5, 83, 10, 3, 0)
s = 167: (0, 48, 7, 21, 23, 7, 27, 3, 54, 15, 5, 0)
s = 168: (0, 39, 11, 14, 40, 12, 13, 7, 85, 13, 3, 0)
s = 169: (0, 48, 13, 9, 25, 10, 16, 4, 95, 19, 3, 0)
s = 170: (0, 36, 15, 14, 35, 8, 24, 6, 66, 30, 4, 0)
s = 171: (0, 68, 14, 10, 15, 7, 19, 3, 67, 20, 3, 0)
s = 172: (0, 59, 10, 27, 38, 12, 16, 4, 63, 20, 3, 0)
s = 173: (0, 47, 6, 10, 19, 7, 10, 5, 48, 16, 3, 0)
s = 174: (0, 48, 14, 16, 28, 6, 17, 5, 73, 18, 3, 0)
s = 175: (0, 40, 10, 17, 35, 5, 18, 3, 58, 13, 3, 0)
s = 176: (0, 40, 8, 29, 33, 7, 15, 7, 75, 27, 4, 0)
s = 177: (0, 45, 9, 15, 19, 5, 14, 5, 69, 17, 5, 0)
s = 178: (0, 53, 11, 11, 25, 6, 10, 4, 77, 14, 5, 0)
s = 179: (0, 50, 8, 13, 35, 10, 15, 4, 49, 20, 3, 0)
s = 180: (0, 41, 12, 11, 28, 8, 19, 6, 61, 20, 4, 0)
s = 181: (0, 57, 6, 22, 34, 8, 18, 4, 115, 11, 4, 0)
s = 182: (0, 59, 9, 18, 38, 10, 19, 5, 56, 16, 4, 0)
s = 183: (0, 37, 8, 17, 20, 12, 13, 5, 87, 14, 5, 0)
s = 184: (0, 50, 7, 16, 21, 9, 11, 3, 46, 20, 2, 0)
s = 185: (0, 67, 10, 16, 37, 8, 16, 4, 50, 10, 4, 0)
s = 186: (0, 66, 16, 17, 21, 8, 21, 5, 52, 19, 4, 0)
s = 187: (0, 29, 9, 16, 22, 8, 26, 6, 43, 12, 5, 0)
s = 188: (0, 39, 13, 12, 20, 6, 27, 3, 57, 18, 3, 0)
s = 189: (0, 49, 13, 19, 18, 11, 12, 5, 68, 17, 5, 0)
s = 190: (0, 34, 8, 15, 17, 9, 17, 5, 62, 27, 5, 0)
s = 191: (0, 35, 6, 13, 22, 6, 20, 4, 45, 22, 3, 0)
s = 192: (0, 39, 9, 14, 32, 7, 19, 4, 47, 14, 4, 0)
s = 193: (0, 49, 10, 16, 14, 9, 17, 6, 54, 24, 3, 0)
s = 194: (0, 54, 15, 13, 35, 11, 16, 5, 71, 18, 2, 0)
s = 195: (0, 68, 15, 22, 29, 15, 20, 5, 46, 20, 3, 0)
s = 196: (0, 65, 10, 9, 22, 7, 20, 4, 68, 12, 5, 0)
s = 197: (0, 56, 8, 22, 15, 10, 14, 5, 77, 19, 3, 0)
s = 198: (0, 39, 15, 11, 28, 8, 16, 5, 62, 21, 2, 0)
s = 199: (0, 68, 7, 17, 18, 8, 26, 5, 69, 26, 3, 0)
s = 200: (0, 32, 8, 13, 22, 8, 9, 4, 71, 25, 4, 0)
------------------------------------------------------------------------
RESOURCE k = 2
s = 1: (0, 118, 33, 14, 30, 9, 53, 14, 156, 13, 14, 0)
s = 2: (0, 160, 38, 27, 39, 10, 78, 14, 127, 14, 19, 0)
s = 3: (0, 135, 22, 18, 28, 9, 51, 8, 102, 18, 15, 0)
s = 4: (0, 114, 40, 26, 39, 10, 42, 22, 86, 21, 11, 0)
s = 5: (0, 127, 43, 19, 40, 8, 60, 11, 99, 28, 25, 0)
s = 6: (0, 81, 58, 21, 59, 11, 69, 14, 122, 17, 21, 0)
s = 7: (0, 122, 32, 18, 28, 11, 70, 17, 115, 17, 14, 0)
s = 8: (0, 77, 29, 19, 28, 8, 44, 9, 181, 15, 21, 0)
s = 9: (0, 89, 32, 29, 53, 13, 51, 12, 91, 16, 16, 0)
s = 10: (0, 102, 56, 29, 82, 13, 71, 13, 134, 11, 27, 0)
s = 11: (0, 74, 25, 35, 56, 8, 47, 26, 83, 11, 26, 0)
s = 12: (0, 68, 43, 16, 32, 10, 49, 12, 96, 15, 19, 0)
s = 13: (0, 106, 52, 36, 58, 10, 91, 15, 102, 18, 11, 0)
s = 14: (0, 136, 55, 28, 27, 15, 46, 12, 85, 19, 14, 0)
s = 15: (0, 90, 35, 21, 32, 11, 35, 20, 91, 13, 16, 0)
s = 16: (0, 192, 25, 16, 43, 16, 62, 14, 112, 18, 22, 0)
s = 17: (0, 60, 28, 16, 48, 19, 76, 15, 85, 15, 23, 0)
s = 18: (0, 76, 36, 28, 39, 9, 86, 14, 80, 21, 20, 0)
s = 19: (0, 99, 49, 25, 43, 15, 86, 15, 99, 17, 18, 0)
s = 20: (0, 83, 25, 26, 43, 13, 92, 20, 83, 23, 18, 0)
s = 21: (0, 110, 42, 26, 48, 15, 77, 20, 123, 17, 24, 0)
s = 22: (0, 75, 32, 14, 50, 9, 64, 9, 93, 14, 20, 0)
s = 23: (0, 86, 40, 31, 59, 13, 61, 19, 116, 13, 30, 0)
s = 24: (0, 115, 36, 24, 36, 7, 48, 15, 101, 15, 25, 0)
s = 25: (0, 105, 34, 25, 43, 12, 52, 14, 115, 13, 16, 0)
s = 26: (0, 60, 27, 32, 54, 15, 83, 12, 110, 24, 25, 0)
s = 27: (0, 112, 41, 17, 35, 8, 55, 15, 123, 18, 20, 0)
s = 28: (0, 133, 33, 38, 42, 13, 70, 13, 134, 21, 14, 0)
s = 29: (0, 141, 38, 23, 59, 9, 125, 11, 117, 21, 24, 0)
s = 30: (0, 87, 35, 24, 37, 7, 60, 11, 165, 11, 13, 0)
s = 31: (0, 98, 44, 20, 24, 15, 51, 12, 73, 11, 18, 0)
s = 32: (0, 97, 30, 21, 45, 12, 68, 13, 93, 22, 11, 0)
s = 33: (0, 100, 62, 17, 37, 13, 46, 8, 170, 16, 15, 0)
s = 34: (0, 88, 63, 27, 64, 18, 56, 20, 135, 18, 21, 0)
s = 35: (0, 119, 40, 19, 46, 11, 69, 15, 106, 16, 31, 0)
s = 36: (0, 108, 36, 15, 56, 8, 56, 14, 114, 13, 13, 0)
s = 37: (0, 72, 31, 19, 38, 8, 32, 20, 115, 12, 16, 0)
s = 38: (0, 88, 34, 29, 38, 14, 57, 14, 121, 19, 21, 0)
s = 39: (0, 103, 38, 28, 54, 12, 114, 11, 69, 11, 24, 0)
s = 40: (0, 117, 68, 26, 30, 14, 38, 21, 106, 22, 10, 0)
s = 41: (0, 73, 39, 43, 59, 17, 75, 10, 150, 14, 16, 0)
s = 42: (0, 178, 43, 36, 30, 10, 65, 15, 111, 9, 24, 0)
s = 43: (0, 146, 36, 34, 65, 12, 83, 13, 80, 22, 15, 0)
s = 44: (0, 75, 52, 15, 59, 15, 55, 13, 92, 15, 30, 0)
s = 45: (0, 119, 25, 33, 46, 15, 37, 13, 84, 13, 13, 0)
s = 46: (0, 73, 56, 26, 47, 13, 53, 19, 95, 16, 26, 0)
s = 47: (0, 97, 30, 19, 34, 8, 58, 20, 110, 21, 31, 0)
s = 48: (0, 76, 31, 21, 33, 10, 46, 9, 83, 11, 18, 0)
s = 49: (0, 100, 31, 24, 31, 9, 37, 15, 96, 12, 16, 0)
s = 50: (0, 136, 37, 35, 39, 9, 84, 9, 130, 13, 28, 0)
s = 51: (0, 105, 38, 24, 74, 11, 46, 12, 62, 11, 18, 0)
s = 52: (0, 155, 41, 25, 54, 9, 46, 18, 88, 12, 20, 0)
s = 53: (0, 80, 44, 29, 58, 10, 73, 16, 146, 11, 20, 0)
s = 54: (0, 81, 41, 29, 51, 13, 75, 18, 67, 20, 14, 0)
s = 55: (0, 95, 33, 24, 58, 10, 56, 15, 98, 27, 30, 0)
s = 56: (0, 75, 45, 28, 59, 11, 43, 16, 124, 12, 13, 0)
s = 57: (0, 103, 54, 15, 54, 14, 64, 13, 120, 19, 21, 0)
s = 58: (0, 71, 25, 21, 28, 17, 52, 17, 91, 24, 16, 0)
s = 59: (0, 110, 38, 19, 43, 12, 59, 15, 77, 12, 24, 0)
s = 60: (0, 104, 23, 19, 39, 18, 77, 12, 66, 16, 17, 0)
s = 61: (0, 102, 49, 32, 49, 16, 52, 12, 132, 22, 22, 0)
s = 62: (0, 86, 34, 26, 36, 12, 79, 21, 58, 24, 11, 0)
s = 63: (0, 126, 46, 21, 31, 7, 59, 20, 69, 14, 20, 0)
s = 64: (0, 139, 35, 26, 32, 9, 36, 13, 143, 12, 22, 0)
s = 65: (0, 166, 35, 28, 45, 17, 60, 15, 113, 21, 16, 0)
s = 66: (0, 149, 53, 25, 28, 8, 77, 10, 68, 13, 22, 0)
s = 67: (0, 86, 25, 15, 42, 13, 45, 13, 147, 18, 24, 0)
s = 68: (0, 85, 48, 24, 41, 15, 62, 10, 86, 26, 14, 0)
s = 69: (0, 100, 33, 23, 45, 10, 63, 20, 103, 16, 22, 0)
s = 70: (0, 107, 21, 21, 50, 18, 59, 16, 159, 17, 16, 0)
s = 71: (0, 138, 51, 29, 28, 8, 82, 13, 98, 17, 14, 0)
s = 72: (0, 90, 46, 22, 60, 20, 52, 13, 109, 15, 24, 0)
s = 73: (0, 95, 33, 22, 34, 9, 50, 20, 72, 19, 17, 0)
s = 74: (0, 109, 57, 19, 54, 11, 45, 12, 103, 20, 21, 0)
s = 75: (0, 74, 53, 22, 47, 13, 42, 15, 91, 17, 18, 0)
s = 76: (0, 63, 35, 14, 34, 14, 105, 11, 149, 10, 29, 0)
s = 77: (0, 124, 23, 14, 41, 13, 78, 11, 65, 9, 14, 0)
s = 78: (0, 104, 27, 16, 58, 8, 53, 16, 73, 19, 15, 0)
s = 79: (0, 135, 44, 20, 32, 11, 54, 13, 110, 15, 19, 0)
s = 80: (0, 100, 43, 23, 36, 12, 63, 8, 84, 19, 20, 0)
s = 81: (0, 126, 26, 18, 33, 9, 85, 11, 109, 22, 18, 0)
s = 82: (0, 84, 29, 32, 29, 11, 72, 10, 107, 18, 22, 0)
s = 83: (0, 108, 50, 35, 61, 12, 67, 18, 95, 14, 18, 0)
s = 84: (0, 126, 29, 20, 48, 16, 62, 13, 161, 20, 30, 0)
s = 85: (0, 97, 56, 22, 39, 9, 50, 24, 193, 21, 24, 0)
s = 86: (0, 149, 55, 23, 36, 16, 102, 16, 82, 14, 24, 0)
s = 87: (0, 130, 38, 32, 33, 8, 51, 10, 124, 15, 12, 0)
s = 88: (0, 127, 28, 25, 33, 14, 44, 10, 85, 11, 20, 0)
s = 89: (0, 83, 62, 20, 37, 10, 79, 22, 97, 14, 17, 0)
s = 90: (0, 69, 40, 44, 56, 7, 60, 17, 153, 10, 22, 0)
s = 91: (0, 127, 45, 17, 36, 9, 95, 11, 77, 21, 14, 0)
s = 92: (0, 159, 29, 29, 43, 9, 38, 15, 90, 12, 18, 0)
s = 93: (0, 128, 23, 21, 43, 11, 56, 12, 70, 16, 26, 0)
s = 94: (0, 101, 32, 30, 49, 15, 54, 10, 83, 14, 20, 0)
s = 95: (0, 99, 30, 27, 54, 16, 61, 20, 132, 16, 24, 0)
s = 96: (0, 100, 39, 19, 31, 12, 70, 16, 111, 16, 19, 0)
s = 97: (0, 65, 34, 28, 36, 11, 63, 12, 73, 15, 14, 0)
s = 98: (0, 149, 36, 27, 29, 14, 60, 13, 89, 16, 24, 0)
s = 99: (0, 97, 27, 29, 38, 12, 65, 12, 74, 15, 22, 0)
s = 100: (0, 79, 69, 15, 48, 8, 51, 9, 194, 11, 21, 0)
s = 101: (0, 142, 26, 23, 36, 9, 38, 16, 111, 15, 17, 0)
s = 102: (0, 113, 69, 25, 48, 8, 55, 18, 66, 18, 13, 0)
s = 103: (0, 152, 37, 47, 52, 8, 53, 13, 119, 16, 16, 0)
s = 104: (0, 96, 56, 17, 33, 11, 48, 13, 101, 11, 13, 0)
s = 105: (0, 92, 41, 21, 65, 10, 62, 12, 58, 19, 15, 0)
s = 106: (0, 143, 35, 24, 28, 17, 49, 13, 58, 15, 22, 0)
s = 107: (0, 107, 34, 30, 45, 15, 63, 11, 107, 25, 21, 0)
s = 108: (0, 61, 38, 20, 32, 13, 77, 11, 99, 21, 21, 0)
s = 109: (0, 66, 39, 26, 30, 12, 33, 13, 100, 19, 26, 0)
s = 110: (0, 75, 30, 16, 36, 11, 74, 18, 95, 10, 11, 0)
s = 111: (0, 152, 48, 25, 43, 10, 63, 10, 79, 19, 19, 0)
s = 112: (0, 115, 73, 27, 51, 10, 57, 14, 125, 9, 15, 0)
s = 113: (0, 119, 49, 20, 37, 9, 82, 20, 124, 12, 17, 0)
s = 114: (0, 77, 29, 24, 28, 11, 84, 17, 120, 18, 14, 0)
s = 115: (0, 72, 49, 31, 60, 20, 78, 14, 131, 22, 17, 0)
s = 116: (0, 103, 52, 20, 45, 8, 88, 22, 74, 17, 14, 0)
s = 117: (0, 63, 40, 37, 57, 7, 51, 8, 141, 19, 21, 0)
s = 118: (0, 88, 56, 18, 51, 13, 67, 17, 80, 19, 28, 0)
s = 119: (0, 95, 28, 29, 60, 13, 52, 11, 94, 17, 27, 0)
s = 120: (0, 61, 53, 25, 44, 8, 72, 26, 118, 28, 33, 0)
s = 121: (0, 141, 24, 32, 41, 9, 61, 15, 123, 21, 23, 0)
s = 122: (0, 141, 49, 19, 59, 13, 40, 15, 87, 11, 21, 0)
s = 123: (0, 93, 51, 26, 41, 8, 65, 21, 163, 10, 17, 0)
s = 124: (0, 70, 41, 27, 73, 11, 79, 19, 171, 15, 17, 0)
s = 125: (0, 125, 41, 17, 59, 13, 73, 12, 65, 14, 12, 0)
s = 126: (0, 130, 33, 32, 44, 11, 62, 13, 108, 17, 28, 0)
s = 127: (0, 128, 30, 35, 51, 10, 73, 9, 103, 16, 14, 0)
s = 128: (0, 135, 39, 25, 37, 13, 89, 17, 60, 14, 27, 0)
s = 129: (0, 115, 22, 32, 51, 14, 54, 17, 91, 15, 23, 0)
s = 130: (0, 123, 28, 30, 44, 9, 44, 10, 111, 14, 29, 0)
s = 131: (0, 111, 42, 17, 41, 6, 81, 14, 146, 17, 22, 0)
s = 132: (0, 63, 40, 15, 57, 12, 73, 13, 76, 13, 24, 0)
s = 133: (0, 157, 41, 38, 70, 11, 59, 10, 130, 20, 12, 0)
s = 134: (0, 124, 31, 16, 46, 15, 43, 12, 105, 17, 16, 0)
s = 135: (0, 121, 41, 18, 60, 12, 54, 12, 115, 11, 28, 0)
s = 136: (0, 139, 34, 30, 54, 9, 76, 20, 88, 23, 14, 0)
s = 137: (0, 89, 26, 23, 50, 20, 37, 16, 58, 15, 29, 0)
s = 138: (0, 108, 43, 25, 55, 11, 65, 15, 105, 16, 13, 0)
s = 139: (0, 135, 28, 14, 28, 7, 39, 23, 113, 10, 23, 0)
s = 140: (0, 136, 22, 21, 40, 13, 38, 17, 123, 13, 13, 0)
s = 141: (0, 108, 25, 21, 62, 11, 54, 11, 113, 19, 15, 0)
s = 142: (0, 153, 25, 26, 44, 14, 46, 16, 78, 14, 13, 0)
s = 143: (0, 97, 34, 34, 64, 9, 65, 11, 68, 19, 13, 0)
s = 144: (0, 82, 38, 13, 37, 6, 37, 19, 117, 20, 34, 0)
s = 145: (0, 197, 40, 42, 25, 12, 74, 20, 96, 14, 16, 0)
s = 146: (0, 58, 30, 16, 66, 18, 54, 19, 132, 25, 11, 0)
s = 147: (0, 137, 45, 27, 57, 11, 79, 16, 64, 22, 15, 0)
s = 148: (0, 83, 34, 31, 62, 11, 56, 15, 112, 15, 22, 0)
s = 149: (0, 105, 38, 17, 37, 14, 51, 21, 77, 24, 14, 0)
s = 150: (0, 108, 31, 23, 78, 8, 55, 11, 80, 16, 15, 0)
s = 151: (0, 71, 27, 23, 36, 12, 82, 9, 83, 11, 16, 0)
s = 152: (0, 160, 25, 33, 41, 11, 46, 14, 109, 14, 16, 0)
s = 153: (0, 84, 30, 30, 39, 12, 46, 15, 126, 11, 23, 0)
s = 154: (0, 141, 26, 32, 31, 15, 44, 9, 109, 18, 15, 0)
s = 155: (0, 124, 45, 29, 44, 8, 58, 15, 79, 22, 23, 0)
s = 156: (0, 70, 67, 25, 51, 9, 85, 12, 72, 15, 15, 0)
s = 157: (0, 115, 49, 23, 49, 12, 36, 20, 116, 13, 21, 0)
s = 158: (0, 75, 20, 24, 60, 8, 34, 10, 117, 14, 23, 0)
s = 159: (0, 97, 44, 19, 30, 9, 65, 8, 100, 12, 18, 0)
s = 160: (0, 64, 33, 30, 35, 9, 51, 18, 176, 11, 18, 0)
s = 161: (0, 89, 46, 34, 58, 10, 56, 13, 141, 14, 18, 0)
s = 162: (0, 142, 43, 37, 49, 13, 67, 20, 78, 17, 16, 0)
s = 163: (0, 117, 29, 23, 48, 14, 65, 14, 117, 22, 16, 0)
s = 164: (0, 120, 43, 26, 60, 9, 73, 13, 108, 16, 13, 0)
s = 165: (0, 107, 26, 28, 36, 11, 74, 9, 69, 12, 16, 0)
s = 166: (0, 117, 30, 19, 32, 9, 92, 16, 124, 10, 17, 0)
s = 167: (0, 108, 23, 31, 37, 10, 101, 10, 80, 15, 26, 0)
s = 168: (0, 88, 40, 20, 66, 16, 49, 22, 128, 13, 15, 0)
s = 169: (0, 108, 48, 14, 41, 14, 60, 13, 142, 19, 14, 0)
s = 170: (0, 79, 54, 21, 58, 11, 87, 20, 98, 30, 21, 0)
s = 171: (0, 152, 53, 14, 24, 9, 70, 11, 100, 20, 15, 0)
s = 172: (0, 131, 36, 41, 63, 16, 57, 14, 94, 20, 16, 0)
s = 173: (0, 104, 22, 15, 31, 9, 38, 17, 72, 16, 18, 0)
s = 174: (0, 106, 51, 23, 47, 8, 61, 16, 109, 18, 18, 0)
s = 175: (0, 90, 35, 25, 57, 7, 67, 9, 86, 13, 14, 0)
s = 176: (0, 89, 30, 43, 54, 9, 56, 24, 113, 27, 24, 0)
s = 177: (0, 101, 32, 22, 31, 7, 52, 16, 103, 17, 27, 0)
s = 178: (0, 118, 39, 17, 41, 8, 37, 14, 115, 14, 27, 0)
s = 179: (0, 112, 27, 20, 58, 14, 56, 12, 73, 20, 19, 0)
s = 180: (0, 92, 43, 16, 47, 11, 71, 20, 91, 20, 22, 0)
s = 181: (0, 127, 23, 33, 56, 11, 67, 11, 172, 11, 24, 0)
s = 182: (0, 132, 32, 26, 63, 13, 69, 16, 83, 16, 21, 0)
s = 183: (0, 82, 28, 25, 34, 16, 49, 15, 131, 14, 28, 0)
s = 184: (0, 113, 27, 24, 35, 12, 39, 10, 68, 20, 11, 0)
s = 185: (0, 151, 36, 23, 61, 11, 58, 14, 75, 10, 24, 0)
s = 186: (0, 147, 59, 26, 35, 11, 78, 17, 78, 19, 22, 0)
s = 187: (0, 65, 34, 24, 36, 11, 95, 20, 65, 12, 28, 0)
s = 188: (0, 86, 46, 18, 33, 8, 101, 10, 86, 18, 13, 0)
s = 189: (0, 109, 49, 28, 29, 14, 44, 16, 101, 17, 26, 0)
s = 190: (0, 77, 29, 23, 29, 12, 64, 18, 92, 27, 28, 0)
s = 191: (0, 77, 23, 19, 36, 9, 75, 14, 68, 22, 14, 0)
s = 192: (0, 88, 33, 21, 52, 10, 68, 14, 71, 14, 20, 0)
s = 193: (0, 110, 36, 24, 24, 13, 62, 20, 80, 24, 15, 0)
s = 194: (0, 122, 54, 19, 58, 15, 59, 17, 107, 18, 11, 0)
s = 195: (0, 152, 55, 33, 48, 20, 74, 15, 69, 20, 19, 0)
s = 196: (0, 145, 36, 14, 37, 10, 75, 14, 101, 12, 28, 0)
s = 197: (0, 126, 28, 32, 25, 14, 51, 17, 116, 19, 13, 0)
s = 198: (0, 87, 54, 17, 46, 11, 59, 17, 93, 21, 13, 0)
s = 199: (0, 153, 27, 25, 30, 11, 95, 17, 103, 26, 15, 0)
s = 200: (0, 71, 29, 19, 37, 10, 33, 11, 106, 25, 20, 0)
************************************************************************
ES/LS-VALUES:
jobnr.   ES(i)    LS(i)
------------------------------------------------------------------------
  0        0        0
  1        0       56
  2        0       69
  3        0       76
  4       11       67
  5        4       80
  6       11       75
  7       16       80
  8       16       73
  9       18       82
 10       19       84
 11       28       86
************************************************************************
BIG-M-VALUES:
M1 = 51, M2 = 323
************************************************************************
